1, 35, 39, 43, 50, 48, 49, 41, 40, 38, 33, 20, 1
1, 19, 4, 6, 5, 9, 12, 11, 10, 13, 8, 7, 3, 2, 16, 1
1, 34, 42, 51, 46, 45, 47, 37, 44, 24, 36, 1
1, 14, 18, 17, 26, 31, 23, 32, 25, 29, 28, 27, 21, 30, 22, 53, 52, 15, 1
